NAME : 60_6_03.84758.tour
COMMENT : Cost = 0_84758
COMMENT : Found by LKH [Keld Helsgaun] Thu Sep 14 11:17:31 2017
TYPE : TOUR
DIMENSION : 66
TOUR_SECTION
1
53
51
25
60
32
36
34
61
37
33
65
15
35
11
50
5
6
27
8
66
7
28
26
31
22
30
20
21
56
59
55
16
17
19
14
41
57
62
9
13
2
3
12
63
54
44
4
52
29
47
43
40
48
46
45
49
64
10
18
24
23
58
38
39
42
-1
EOF
